c description: Random 3-CNF over 20 variables and 85 clauses
c generator: CNFgen (0.9.2)
c copyright: (C) 2012-2022 Massimo Lauria <massimo.lauria@uniroma1.it>
c url: https://massimolauria.net/cnfgen
c command line: cnfgen --output CNF_4.28/20_bit_85_952.cnf randkcnf 3 20 85
c
p cnf 20 85
12 -15 19 0
7 -13 20 0
-9 17 19 0
3 -9 -10 0
-5 13 16 0
-6 9 15 0
-8 10 -17 0
-1 -2 10 0
-3 -5 -11 0
3 10 -18 0
-7 15 -19 0
-7 -18 -20 0
3 -11 -19 0
-2 -11 -16 0
5 -8 -14 0
-4 -5 10 0
5 -9 14 0
-4 6 15 0
6 7 -11 0
1 -2 4 0
6 11 -13 0
-9 -14 -20 0
-2 13 -17 0
3 5 20 0
3 8 12 0
-1 10 -13 0
-7 11 14 0
4 5 8 0
12 -13 -20 0
-1 7 16 0
-3 13 -20 0
-1 11 -14 0
2 5 10 0
1 -7 15 0
-5 15 -18 0
-3 -5 9 0
5 -12 -14 0
2 12 14 0
-1 -8 -20 0
-8 -9 -14 0
4 10 18 0
5 7 -20 0
-9 -18 -19 0
-7 -12 -15 0
5 -6 -18 0
7 -14 -15 0
11 14 19 0
-10 -12 19 0
-2 -4 7 0
5 -7 -10 0
-4 -8 -13 0
1 15 16 0
-2 -9 -13 0
-4 6 -15 0
-3 -10 -17 0
4 -9 -18 0
5 12 -20 0
4 8 -15 0
5 -16 18 0
8 13 17 0
-12 -13 17 0
4 -9 -15 0
-1 -9 13 0
-6 16 17 0
-3 12 14 0
-4 -5 -6 0
8 12 16 0
-2 -11 16 0
2 -6 7 0
13 -14 17 0
3 -4 -16 0
4 11 16 0
-1 3 -18 0
-9 -14 -19 0
6 -15 -20 0
-5 11 13 0
-3 6 -17 0
-6 10 -15 0
3 -9 10 0
-7 9 14 0
3 10 -12 0
11 16 -19 0
-6 -14 -20 0
7 9 -12 0
-12 -17 -19 0
